c instance by G2
c solution = 1010101111001
c Known solution cost is 466 
p cnf 13 30
w 48 35 44 8 21 53 76 43 7 45 0 71 15
1 -9 -6 0
-11 12 -3 0
-8 13 2 0
-8 -1 -6 0
12 5 8 0
-11 -10 8 0
-1 5 10 0
9 2 -11 0
-7 -1 5 0
-9 3 -5 0
2 -8 -12 0
10 -2 -5 0
-1 12 10 0
-12 5 -6 0
-13 12 1 0
8 -7 10 0
-13 -2 5 0
10 -13 7 0
-1 -7 -12 0
4 7 -3 0
-8 -7 9 0
-12 11 7 0
4 -3 1 0
-3 -8 -2 0
11 6 -4 0
12 8 -13 0
9 6 -1 0
2 -12 11 0
-4 5 7 0
-10 9 4 0
